certificates/rado_a7_c207_N30.cnf
c Rad2 upper bound instance: x1 + 7*x2 - x3 = 207, interval [1,30]
p cnf 30 176
1 4 30 0
-1 -4 -30 0
2 5 30 0
-2 -5 -30 0
3 6 30 0
-3 -6 -30 0
4 7 30 0
-4 -7 -30 0
1 5 29 0
-1 -5 -29 0
5 8 30 0
-5 -8 -30 0
2 6 29 0
-2 -6 -29 0
6 9 30 0
-6 -9 -30 0
3 7 29 0
-3 -7 -29 0
7 10 30 0
-7 -10 -30 0
4 8 29 0
-4 -8 -29 0
8 11 30 0
-8 -11 -30 0
5 9 29 0
-5 -9 -29 0
9 12 30 0
-9 -12 -30 0
6 10 29 0
-6 -10 -29 0
10 13 30 0
-10 -13 -30 0
7 11 29 0
-7 -11 -29 0
11 14 30 0
-11 -14 -30 0
1 12 28 0
-1 -12 -28 0
8 12 29 0
-8 -12 -29 0
12 15 30 0
-12 -15 -30 0
2 13 28 0
-2 -13 -28 0
9 13 29 0
-9 -13 -29 0
13 16 30 0
-13 -16 -30 0
3 14 28 0
-3 -14 -28 0
10 14 29 0
-10 -14 -29 0
14 17 30 0
-14 -17 -30 0
4 15 28 0
-4 -15 -28 0
11 15 29 0
-11 -15 -29 0
15 18 30 0
-15 -18 -30 0
5 16 28 0
-5 -16 -28 0
12 16 29 0
-12 -16 -29 0
16 19 30 0
-16 -19 -30 0
6 17 28 0
-6 -17 -28 0
13 17 29 0
-13 -17 -29 0
17 20 30 0
-17 -20 -30 0
7 18 28 0
-7 -18 -28 0
14 18 29 0
-14 -18 -29 0
18 21 30 0
-18 -21 -30 0
1 19 27 0
-1 -19 -27 0
8 19 28 0
-8 -19 -28 0
15 19 29 0
-15 -19 -29 0
19 22 30 0
-19 -22 -30 0
2 20 27 0
-2 -20 -27 0
9 20 28 0
-9 -20 -28 0
16 20 29 0
-16 -20 -29 0
20 23 30 0
-20 -23 -30 0
3 21 27 0
-3 -21 -27 0
10 21 28 0
-10 -21 -28 0
17 21 29 0
-17 -21 -29 0
21 24 30 0
-21 -24 -30 0
4 22 27 0
-4 -22 -27 0
11 22 28 0
-11 -22 -28 0
18 22 29 0
-18 -22 -29 0
22 25 30 0
-22 -25 -30 0
5 23 27 0
-5 -23 -27 0
12 23 28 0
-12 -23 -28 0
19 23 29 0
-19 -23 -29 0
23 26 30 0
-23 -26 -30 0
6 24 27 0
-6 -24 -27 0
13 24 28 0
-13 -24 -28 0
20 24 29 0
-20 -24 -29 0
24 27 30 0
-24 -27 -30 0
7 25 27 0
-7 -25 -27 0
14 25 28 0
-14 -25 -28 0
21 25 29 0
-21 -25 -29 0
25 28 30 0
-25 -28 -30 0
1 26 0
-1 -26 0
8 26 27 0
-8 -26 -27 0
15 26 28 0
-15 -26 -28 0
22 26 29 0
-22 -26 -29 0
26 29 30 0
-26 -29 -30 0
2 26 27 0
-2 -26 -27 0
9 27 0
-9 -27 0
16 27 28 0
-16 -27 -28 0
23 27 29 0
-23 -27 -29 0
27 30 0
-27 -30 0
3 26 28 0
-3 -26 -28 0
10 27 28 0
-10 -27 -28 0
17 28 0
-17 -28 0
24 28 29 0
-24 -28 -29 0
4 26 29 0
-4 -26 -29 0
11 27 29 0
-11 -27 -29 0
18 28 29 0
-18 -28 -29 0
25 29 0
-25 -29 0
5 26 30 0
-5 -26 -30 0
12 27 30 0
-12 -27 -30 0
19 28 30 0
-19 -28 -30 0
