certificates/rado_a7_c207_N30.drat
-29 -30 0
-30 0
27 0
-9 0
6 0
12 0
-24 0
21 0
-3 0
29 0
-25 0
-2 0
-23 0
-11 0
-10 0
-8 0
-16 0
-17 0
22 0
28 0
5 0
20 0
26 0
0
